0 509 501 312 1019 736 656 
509 0 126 474 1526 1226 1133 
501 126 0 541 1516 1184 1084 
312 474 541 0 1157 980 919 
1019 1526 1516 1157 0 478 583 
736 1226 1184 980 478 0 115 
656 1133 1084 919 583 115 0 
